param set_len = 16;
param target = 101582;
param values := [0] 12692 [1] 22912 [2] 473 [3] 28146 [4] 14787 [5] 20409 [6] 24525 [7] 3615 [8] 12578 [9] 8219 [10] 3002 [11] 21336 [12] 24034 [13] 4492 [14] 30373 [15] 25553 ;
